
Gurobi 11.0.3 (linux64) logging started Thu Apr 16 07:11:33 2026

Set parameter LogFile to value "tree/results/ceva/ceva_depth-4_run-1/Full MIP/LogFile_FullModel.txt"
Gurobi Optimizer version 11.0.3 build v11.0.3rc0 (linux64 - "CentOS Linux 7 (Core)")

CPU model: Intel(R) Xeon(R) Platinum 8260 CPU @ 2.40GHz, instruction set [SSE2|AVX|AVX2|AVX512]
Thread count: 96 physical cores, 192 logical processors, using up to 32 threads

Optimize a model with 270645 rows, 166691 columns and 4330237 nonzeros
Model fingerprint: 0xcdd9190f
Model has 20736 general constraints
Variable types: 104194 continuous, 62497 integer (62497 binary)
Coefficient statistics:
  Matrix range     [8e-04, 1e+04]
  Objective range  [8e-04, 1e+04]
  Bounds range     [1e+00, 1e+03]
  RHS range        [1e-04, 1e+03]

User MIP start produced solution with objective -70399.2 (1.27s)
Loaded user MIP start with objective -70399.2
Processed MIP start in 1.51 seconds (0.35 work units)

Presolve removed 82960 rows and 82944 columns (presolve time = 5s) ...
Presolve added 20720 rows and 82944 columns
Presolve time: 6.14s
Presolved: 291365 rows, 249635 columns, 4496313 nonzeros
Presolved model has 82944 SOS constraint(s)
Variable types: 104194 continuous, 145441 integer (145441 binary)

Deterministic concurrent LP optimizer: primal simplex, dual simplex, and barrier
Showing barrier log only...

Root relaxation presolved: 291365 rows, 249635 columns, 4496313 nonzeros

Root barrier log...

Ordering time: 0.17s

Barrier statistics:
 Dense cols : 240
 AA' NZ     : 4.602e+06
 Factor NZ  : 1.831e+07 (roughly 400 MB of memory)
 Factor Ops : 1.243e+09 (less than 1 second per iteration)
 Threads    : 30

                  Objective                Residual
Iter       Primal          Dual         Primal    Dual     Compl     Time
   0  -1.07400549e+05  2.00085203e+09  1.50e+04 1.97e-14  7.72e+05    14s
   1  -7.23307319e+04  3.39169016e+09  6.37e+03 2.57e+01  2.91e+05    15s
   2  -3.96276687e+04  3.44977358e+09  7.74e+02 3.56e+00  3.92e+04    16s
   3  -2.23112535e+04  2.42855805e+09  7.57e+01 6.88e-01  7.04e+03    18s
   4  -2.98254379e+03  4.16012573e+08  6.31e+00 6.66e-02  8.63e+02    19s
   5  -2.97742892e+02  4.98564030e+07  3.12e-01 6.63e-03  9.50e+01    20s
   6  -2.88726687e+01  5.24902270e+06  3.14e-02 6.63e-04  9.64e+00    21s
   7  -1.98556809e+00  5.35239926e+05  3.34e-03 6.75e-05  9.79e-01    22s
   8   7.03197425e-01  6.22499872e+04  5.34e-04 7.85e-06  1.14e-01    23s
   9   9.48008252e-01  6.28951912e+03  5.29e-05 7.84e-07  1.15e-02    24s
  10   9.94801218e-01  6.31071717e+02  5.34e-06 7.86e-08  1.15e-03    25s
  11   9.99480022e-01  6.45805827e+01  5.29e-07 7.86e-09  1.16e-04    26s
  12   9.99948002e-01  7.35806392e+00  5.29e-08 7.86e-10  1.16e-05    26s
  13   9.99994800e-01  1.64159259e+00  5.24e-09 7.86e-11  1.17e-06    27s
  14   9.99999480e-01  1.06415926e+00  5.24e-10 7.86e-12  1.17e-07    28s
  15   9.99999948e-01  1.00647431e+00  5.22e-11 7.86e-13  1.18e-08    30s
  16   9.99999995e-01  1.00064743e+00  5.47e-12 7.86e-14  1.18e-09    31s
  17   9.99999999e-01  1.00006474e+00  8.53e-13 7.86e-15  1.18e-10    33s
  18   1.00000000e+00  1.00000647e+00  4.41e-13 7.87e-16  1.18e-11    35s
  19   1.00000000e+00  1.00000065e+00  4.26e-13 7.88e-17  1.18e-12    37s
  20   1.00000000e+00  1.00000006e+00  4.41e-13 7.89e-18  1.18e-13    38s
  21   1.00000000e+00  1.00000001e+00  4.26e-13 3.47e-18  1.18e-14    39s

Barrier solved model in 21 iterations and 39.02 seconds (23.54 work units)
Optimal objective 1.00000000e+00


Root crossover log...

   11742 DPushes remaining with DInf 0.0000000e+00                39s
       0 DPushes remaining with DInf 0.0000000e+00                39s

   99205 PPushes remaining with PInf 0.0000000e+00                40s
   12065 PPushes remaining with PInf 0.0000000e+00                40s
       0 PPushes remaining with PInf 0.0000000e+00                45s

  Push phase complete: Pinf 0.0000000e+00, Dinf 0.0000000e+00     45s


Root simplex log...

Iteration    Objective       Primal Inf.    Dual Inf.      Time
   99209    1.0000000e+00   0.000000e+00   0.000000e+00     46s
   99209    1.0000000e+00   0.000000e+00   0.000000e+00     47s
Concurrent spin time: 0.02s

Solved with barrier

Root relaxation: objective 1.000000e+00, 99209 iterations, 37.17 seconds (20.20 work units)
Total elapsed time = 167.44s (DegenMoves)

    Nodes    |    Current Node    |     Objective Bounds      |     Work
 Expl Unexpl |  Obj  Depth IntInf | Incumbent    BestBd   Gap | It/Node Time

     0     0    1.00000    0 19270 -70399.186    1.00000   100%     -  169s
     0     2    1.00000    0 19270 -70399.186    1.00000   100%     - 1506s
H    1     4                    -70399.18590    1.00000   100%  2412 3382s
     3     8    1.00000    2 18973 -70399.186    1.00000   100% 13745 3385s
    15    32    1.00000    4 18970 -70399.186    1.00000   100%  2751 3392s
    31    64    1.00000    5 18969 -70399.186    1.00000   100%  1332 3427s
H   39    64                       0.7993827    1.00000  25.1%  1059 3427s
    63    96    1.00000    6 18968    0.79938    1.00000  25.1%   657 3432s
    95   128    1.00000    7 18967    0.79938    1.00000  25.1%   436 3602s

Explored 127 nodes (143059 simplex iterations) in 3603.42 seconds (4744.52 work units)
Thread count was 32 (of 192 available processors)

Solution count 3: 0.799383 -70399.2 -70399.2 

Time limit reached
Best objective 7.993827160494e-01, best bound 1.000000000000e+00, gap 25.0965%

User-callback calls 827764, time in user-callback 5.10 sec
